
Gurobi 6.5.2 (linux64) logging started Wed Aug 31 10:35:41 2016

Optimize a model with 201 rows, 3565 columns and 7133 nonzeros
Coefficient statistics:
  Matrix range    [1e+00, 2e+00]
  Objective range [2e+00, 1e+02]
  Bounds range    [1e+00, 1e+00]
  RHS range       [1e+00, 1e+00]
Found heuristic solution: objective 5157
Presolve removed 100 rows and 98 columns
Presolve time: 0.01s
Presolved: 101 rows, 3467 columns, 6935 nonzeros
Variable types: 0 continuous, 3467 integer (3467 binary)

Root relaxation: objective 8.970000e+02, 150 iterations, 0.00 seconds

    Nodes    |    Current Node    |     Objective Bounds      |     Work
 Expl Unexpl |  Obj  Depth IntInf | Incumbent    BestBd   Gap | It/Node Time

     0     0  897.00000    0    6 5157.00000  897.00000  82.6%     -    0s
H    0     0                     921.0000000  897.00000  2.61%     -    0s
H    0     0                     920.0000000  897.00000  2.50%     -    0s
     0     0  898.50000    0    8  920.00000  898.50000  2.34%     -    0s
     0     0  898.50000    0    6  920.00000  898.50000  2.34%     -    0s
     0     0  899.50000    0    8  920.00000  899.50000  2.23%     -    0s
     0     0  901.50000    0    6  920.00000  901.50000  2.01%     -    0s
H    0     0                     906.0000000  901.50000  0.50%     -    0s
     0     0  901.66667    0   33  906.00000  901.66667  0.48%     -    0s
     0     0  901.66667    0    5  906.00000  901.66667  0.48%     -    0s
H    0     0                     905.0000000  901.66667  0.37%     -    0s
*    0     0               0     902.0000000  902.00000  0.00%     -    0s

Cutting planes:
  Gomory: 4
  Zero half: 4

Explored 0 nodes (440 simplex iterations) in 0.07 seconds
Thread count was 8 (of 8 available processors)

Optimal solution found (tolerance 1.00e-04)
Best objective 9.020000000000e+02, best bound 9.020000000000e+02, gap 0.0%
